 &BANDS
    prefix  = 'Graphene_1x1_PBE'
    outdir  = './outdir'
    filband = 'graphene.bands.dat'
    lsym = .true.,
 /
