 &CONTROL
    calculation = 'bands',
    prefix      = 'Graphene_1x1_PBE',
    outdir      = './outdir',
    pseudo_dir  = '.',        
 /
 
 &SYSTEM
    ibrav     = 4,
    celldm(1) = 4.6542890,
    celldm(3) = 3.0,
    nat  = 2,
    ntyp = 1,
    ecutwfc = 20.0,
    ecutrho = 200.0,

    occupations='tetrahedra'
 /
 
 &ELECTRONS
    conv_thr = 1.0d-8
 /
 
ATOMIC_SPECIES
   C  12.0107 C.pbe-n-rrkjus_psl.1.0.0.UPF
ATOMIC_POSITIONS {crystal}
C   0.0000000 0.0000000 0.000000  
C   0.3333333 0.6666666 0.000000  
   
K_POINTS {automatic}
12 12 1 0 0 0
